15533
1 0 1 1 0 1 0 1 1 0 0 1 0 1 1 0 0 1 0 0 1 1 1 0 1 0 0 1 0 1 
20 11 13 2 20 5 2 24 14 17 22 8 8 20 3 14 14 17 5 11 2 0 5 3 5 8 2 24 5 24 5 11 13 11 20 20 24 24 0 14 0 14 24 8 24 14 0 13 27 8 29 14 14 5 13 20 17 11 0 14 0 5 20 11 11 11 22 0 5 22 20 20 11 17 24 8 22 20 14 24 20 7 13 17 17 17 17 7 20 5 2 24 17 11 17 5 2 2 21 13 8 17 17 11 2 29 17 11 14 8 14 14 2 11 11 21 24 24 24 5 5 8 11 13 8 0 5 22 0 21 0 11 24 5 8 14 7 29 20 17 0 8 20 17 8 27 0 0 2 0 
